db/data/663421913250921264529759242632819030286.z3.out
sat
-------------------
967.661080552
